problem_generation/data/GISP/train/er_n=60_m=1056_p=0.60_SET2_setparam=100.00_alpha=0.50_906.lp
maximize
OBJ:100x0 + 100x1 + 100x2 + 100x3 + 100x4 + 100x5 + 100x6 + 100x7 + 100x8 + 100x9 + 100x10 + 100x11 + 100x12 + 100x13 + 100x14 + 100x15 + 100x16 + 100x17 + 100x18 + 100x19 + 100x20 + 100x21 + 100x22 + 100x23 + 100x24 + 100x25 + 100x26 + 100x27 + 100x28 + 100x29 + 100x30 + 100x31 + 100x32 + 100x33 + 100x34 + 100x35 + 100x36 + 100x37 + 100x38 + 100x39 + 100x40 + 100x41 + 100x42 + 100x43 + 100x44 + 100x45 + 100x46 + 100x47 + 100x48 + 100x49 + 100x50 + 100x51 + 100x52 + 100x53 + 100x54 + 100x55 + 100x56 + 100x57 + 100x58 + 100x59 - y17_58 - y28_58 - y7_35 - y29_32 - y8_9 - y40_41 - y48_54 - y11_23 - y29_59 - y25_34 - y33_47 - y2_41 - y25_43 - y10_54 - y3_15 - y14_15 - y14_51 - y36_48 - y47_48 - y15_25 - y36_57 - y47_57 - y28_53 - y9_49 - y9_58 - y21_32 - y0_9 - y48_58 - y21_41 - y33_42 - y2_36 - y25_38 - y10_49 - y44_51 - y25_47 - y10_58 - y22_23 - y14_19 - y22_32 - y13_51 - y55_56 - y28_39 - y47_52 - y17_57 - y21_27 - y21_45 - y6_56 - y10_35 - y2_40 - y2_49 - y3_14 - y32_50 - y22_27 - y24_46 - y35_46 - y3_23 - y43_50 - y43_59 - y16_51 - y17_25 - y28_34 - y7_11 - y9_30 - y17_43 - y17_52 - y5_59 - y6_24 - y21_31 - y29_44 - y40_44 - y39_48 - y10_21 - y39_57 - y54_55 - y10_39 - y12_58 - y3_9 - y32_45 - y43_45 - y24_41 - y43_54 - y16_37 - y16_46 - y35_59 - y5_27 - y47_51 - y5_45 - y17_47 - y28_47 - y5_54 - y6_19 - y28_56 - y6_28 - y10_16 - y39_52 - y20_57 - y31_57 - y2_30 - y4_49 - y13_27 - y24_27 - y3_4 - y35_36 - y16_32 - y24_45 - y35_45 - y16_41 - y13_54 - y35_54 - y5_22 - y9_20 - y5_31 - y17_33 - y5_40 - y5_49 - y42_44 - y50_57 - y20_34 - y20_52 - y13_31 - y24_31 - y1_38 - y24_40 - y35_40 - y16_45 - y9_24 - y27_50 - y8_55 - y0_51 - y20_38 - y31_38 - y12_34 - y31_47 - y4_30 - y23_43 - y31_56 - y4_39 - y12_52 - y23_52 - y4_57 - y32_39 - y13_35 - y16_31 - y1_42 - y13_44 - y16_40 - y1_51 - y16_49 - y9_10 - y38_46 - y5_21 - y46_59 - y57_59 - y9_19 - y15_53 - y49_55 - y18_58 - y27_36 - y27_45 - y8_41 - y42_43 - y0_55 - y11_55 - y12_29 - y20_42 - y31_42 - y12_47 - y53_57 - y4_52 - y45_53 - y24_30 - y16_26 - y1_37 - y16_35 - y5_7 - y5_16 - y15_48 - y18_53 - y8_27 - y8_36 - y0_32 - y11_41 - y42_56 - y11_50 - y12_24 - y20_37 - y12_33 - y4_29 - y23_42 - y4_38 - y34_48 - y45_48 - y24_25 - y37_44 - y56_57 - y16_30 - y46_49 - y15_43 - y18_48 - y7_57 - y8_22 - y18_57 - y19_31 - y30_31 - y27_44 - y0_27 - y8_40 - y30_40 - y27_53 - y11_36 - y8_49 - y30_49 - y11_45 - y41_46 - y41_55 - y20_32 - y12_28 - y12_37 - y23_37 - y1_9 - y1_18 - y53_56 - y15_29 - y15_47 - y7_43 - y18_43 - y15_56 - y26_56 - y11_13 - y8_35 - y0_31 - y30_44 - y0_40 - y4_10 - y12_23 - y10_53 - y44_55 - y1_4 - y2_58 - y45_47 - y14_41 - y37_43 - y34_56 - y14_50 - y18_20 - y26_33 - y26_42 - y7_38 - y18_47 - y8_12 - y0_8 - y18_56 - y19_21 - y40_53 - y8_30 - y11_26 - y0_35 - y52_54 - y4_14 - y10_48 - y10_57 - y33_59 - y44_59 - y3_27 - y14_27 - y34_42 - y3_36 - y14_36 - y22_49 - y34_51 - y3_45 - y37_47 - y22_58 - y3_54 - y37_56 - y7_15 - y26_28 - y7_24 - y18_24 - y15_37 - y7_33 - y7_42 - y29_39 - y0_12 - y29_48 - y19_25 - y0_21 - y6_55 - y11_21 - y11_30 - y4_9 - y44_45 - y22_26 - y3_22 - y3_31 - y3_40 - y37_42 - y22_53 - y14_49 - y7_10 - y36_46 - y7_19 - y47_55 - y26_32 - y7_28 - y29_43 - y21_39 - y11_16 - y40_52 - y6_59 - y10_20 - y41_44 - y33_40 - y33_49 - y10_56 - y51_57 - y25_54 - y22_30 - y24_58 - y3_35 - y14_44 - y36_41 - y18_23 - y47_59 - y29_38 - y29_56 - y40_56 - y54_58 - y33_35 - y2_38 - y14_30 - y16_58 - y28_32 - y36_54 - y5_48 - y28_50 - y5_57 - y6_31 - y29_33 - y21_29 - y40_42 - y21_38 - y29_51 - y25_26 - y3_7 - y14_16 - y32_52 - y13_48 - y24_48 - y35_48 - y24_57 - y17_27 - y9_23 - y28_45 - y17_54 - y9_50 - y21_24 - y6_35 - y21_33 - y21_42 - y39_50 - y10_32 - y12_51 - y32_47 - y24_43 - y16_39 - y13_52 - y1_59 - y5_38 - y9_36 - y17_49 - y5_56 - y6_21 - y58_59 - y50_55 - y21_28 - y6_39 - y20_41 - y31_50 - y2_23 - y12_55 - y23_55 - y32_33 - y1_27 - y24_29 - y51_55 - y1_36 - y13_38 - y35_56 - y16_52 - y46_53 - y9_13 - y17_26 - y5_42 - y6_25 - y50_59 - y19_53 - y39_49 - y39_58 - y23_41 - y2_18 - y31_54 - y12_59 - y23_59 - y16_20 - y24_33 - y16_29 - y13_42 - y38_44 - y46_57 - y38_53 - y5_37 - y30_39 - y8_48 - y42_50 - y8_57 - y2_4 - y20_40 - y39_53 - y20_49 - y31_49 - y23_45 - y12_54 - y16_24 - y35_37 - y5_14 - y46_52 - y9_21 - y26_55 - y27_38 - y0_30 - y0_39 - y8_52 - y0_48 - y20_26 - y12_22 - y23_31 - y4_36 - y12_49 - y23_49 - y34_46 - y16_19 - y3_58 - y14_58 - y9_16 - y38_52 - y49_52 - y18_46 - y7_55 - y0_25 - y19_38 - y8_47 - y30_47 - y0_43 - y19_56 - y23_26 - y4_22 - y23_35 - y4_40 - y1_16 - y45_50 - y22_57 - y56_59 - y37_55 - y15_27 - y15_36 - y26_36 - y7_32 - y26_54 - y11_20 - y8_33 - y19_33 - y8_42 - y0_38 - y41_48 - y22_34 - y1_11 - y22_43 - y37_41 - y34_54 - y45_54 - y3_48 - y14_48 - y3_57 - y14_57 - y7_18 - y38_42 - y7_36 - y7_45 - y26_58 - y0_6 - y27_32 - y0_15 - y8_37 - y41_43 - y33_39 - y12_16 - y41_52 - y33_48 - y10_55 - y33_57 - y22_29 - y3_34 - y45_49 - y14_43 - y56_58 - y14_52 - y7_13 - y18_31 - y26_44 - y18_40 - y0_1 - y7_49 - y18_49 - y0_10 - y19_23 - y11_19 - y21_51 - y0_28 - y33_34 - y33_43 - y52_56 - y44_52 - y25_48 - y2_55 - y34_35 - y34_44 - y37_40 - y7_8 - y3_56
 Subject to
C1: x0+x1-y0_1 <=1 
C2: x0+x4 <=1 
C3: x0+x6-y0_6 <=1 
C4: x0+x7 <=1 
C5: x0+x8-y0_8 <=1 
C6: x0+x9-y0_9 <=1 
C7: x0+x10-y0_10 <=1 
C8: x0+x11 <=1 
C9: x0+x12-y0_12 <=1 
C10: x0+x15-y0_15 <=1 
C11: x0+x16 <=1 
C12: x0+x20 <=1 
C13: x0+x21-y0_21 <=1 
C14: x0+x25-y0_25 <=1 
C15: x0+x27-y0_27 <=1 
C16: x0+x28-y0_28 <=1 
C17: x0+x29 <=1 
C18: x0+x30-y0_30 <=1 
C19: x0+x31-y0_31 <=1 
C20: x0+x32-y0_32 <=1 
C21: x0+x34 <=1 
C22: x0+x35-y0_35 <=1 
C23: x0+x37 <=1 
C24: x0+x38-y0_38 <=1 
C25: x0+x39-y0_39 <=1 
C26: x0+x40-y0_40 <=1 
C27: x0+x41 <=1 
C28: x0+x43-y0_43 <=1 
C29: x0+x48-y0_48 <=1 
C30: x0+x50 <=1 
C31: x0+x51-y0_51 <=1 
C32: x0+x53 <=1 
C33: x0+x54 <=1 
C34: x0+x55-y0_55 <=1 
C35: x0+x58 <=1 
C36: x0+x59 <=1 
C37: x1+x2 <=1 
C38: x1+x4-y1_4 <=1 
C39: x1+x6 <=1 
C40: x1+x9-y1_9 <=1 
C41: x1+x11-y1_11 <=1 
C42: x1+x12 <=1 
C43: x1+x15 <=1 
C44: x1+x16-y1_16 <=1 
C45: x1+x18-y1_18 <=1 
C46: x1+x19 <=1 
C47: x1+x22 <=1 
C48: x1+x23 <=1 
C49: x1+x25 <=1 
C50: x1+x27-y1_27 <=1 
C51: x1+x36-y1_36 <=1 
C52: x1+x37-y1_37 <=1 
C53: x1+x38-y1_38 <=1 
C54: x1+x39 <=1 
C55: x1+x42-y1_42 <=1 
C56: x1+x47 <=1 
C57: x1+x51-y1_51 <=1 
C58: x1+x52 <=1 
C59: x1+x53 <=1 
C60: x1+x55 <=1 
C61: x1+x57 <=1 
C62: x1+x58 <=1 
C63: x1+x59-y1_59 <=1 
C64: x2+x3 <=1 
C65: x2+x4-y2_4 <=1 
C66: x2+x7 <=1 
C67: x2+x11 <=1 
C68: x2+x13 <=1 
C69: x2+x17 <=1 
C70: x2+x18-y2_18 <=1 
C71: x2+x20 <=1 
C72: x2+x21 <=1 
C73: x2+x23-y2_23 <=1 
C74: x2+x24 <=1 
C75: x2+x28 <=1 
C76: x2+x30-y2_30 <=1 
C77: x2+x36-y2_36 <=1 
C78: x2+x38-y2_38 <=1 
C79: x2+x40-y2_40 <=1 
C80: x2+x41-y2_41 <=1 
C81: x2+x42 <=1 
C82: x2+x44 <=1 
C83: x2+x46 <=1 
C84: x2+x49-y2_49 <=1 
C85: x2+x55-y2_55 <=1 
C86: x2+x58-y2_58 <=1 
C87: x3+x4-y3_4 <=1 
C88: x3+x5 <=1 
C89: x3+x7-y3_7 <=1 
C90: x3+x9-y3_9 <=1 
C91: x3+x13 <=1 
C92: x3+x14-y3_14 <=1 
C93: x3+x15-y3_15 <=1 
C94: x3+x16 <=1 
C95: x3+x19 <=1 
C96: x3+x20 <=1 
C97: x3+x21 <=1 
C98: x3+x22-y3_22 <=1 
C99: x3+x23-y3_23 <=1 
C100: x3+x24 <=1 
C101: x3+x25 <=1 
C102: x3+x27-y3_27 <=1 
C103: x3+x28 <=1 
C104: x3+x29 <=1 
C105: x3+x31-y3_31 <=1 
C106: x3+x32 <=1 
C107: x3+x34-y3_34 <=1 
C108: x3+x35-y3_35 <=1 
C109: x3+x36-y3_36 <=1 
C110: x3+x40-y3_40 <=1 
C111: x3+x41 <=1 
C112: x3+x42 <=1 
C113: x3+x44 <=1 
C114: x3+x45-y3_45 <=1 
C115: x3+x47 <=1 
C116: x3+x48-y3_48 <=1 
C117: x3+x52 <=1 
C118: x3+x53 <=1 
C119: x3+x54-y3_54 <=1 
C120: x3+x55 <=1 
C121: x3+x56-y3_56 <=1 
C122: x3+x57-y3_57 <=1 
C123: x3+x58-y3_58 <=1 
C124: x4+x8 <=1 
C125: x4+x9-y4_9 <=1 
C126: x4+x10-y4_10 <=1 
C127: x4+x13 <=1 
C128: x4+x14-y4_14 <=1 
C129: x4+x15 <=1 
C130: x4+x16 <=1 
C131: x4+x17 <=1 
C132: x4+x18 <=1 
C133: x4+x22-y4_22 <=1 
C134: x4+x23 <=1 
C135: x4+x26 <=1 
C136: x4+x28 <=1 
C137: x4+x29-y4_29 <=1 
C138: x4+x30-y4_30 <=1 
C139: x4+x31 <=1 
C140: x4+x32 <=1 
C141: x4+x33 <=1 
C142: x4+x35 <=1 
C143: x4+x36-y4_36 <=1 
C144: x4+x37 <=1 
C145: x4+x38-y4_38 <=1 
C146: x4+x39-y4_39 <=1 
C147: x4+x40-y4_40 <=1 
C148: x4+x43 <=1 
C149: x4+x45 <=1 
C150: x4+x46 <=1 
C151: x4+x49-y4_49 <=1 
C152: x4+x52-y4_52 <=1 
C153: x4+x53 <=1 
C154: x4+x55 <=1 
C155: x4+x57-y4_57 <=1 
C156: x5+x6 <=1 
C157: x5+x7-y5_7 <=1 
C158: x5+x9 <=1 
C159: x5+x11 <=1 
C160: x5+x14-y5_14 <=1 
C161: x5+x16-y5_16 <=1 
C162: x5+x19 <=1 
C163: x5+x21-y5_21 <=1 
C164: x5+x22-y5_22 <=1 
C165: x5+x23 <=1 
C166: x5+x24 <=1 
C167: x5+x27-y5_27 <=1 
C168: x5+x31-y5_31 <=1 
C169: x5+x34 <=1 
C170: x5+x35 <=1 
C171: x5+x36 <=1 
C172: x5+x37-y5_37 <=1 
C173: x5+x38-y5_38 <=1 
C174: x5+x40-y5_40 <=1 
C175: x5+x41 <=1 
C176: x5+x42-y5_42 <=1 
C177: x5+x43 <=1 
C178: x5+x44 <=1 
C179: x5+x45-y5_45 <=1 
C180: x5+x46 <=1 
C181: x5+x48-y5_48 <=1 
C182: x5+x49-y5_49 <=1 
C183: x5+x50 <=1 
C184: x5+x51 <=1 
C185: x5+x52 <=1 
C186: x5+x54-y5_54 <=1 
C187: x5+x55 <=1 
C188: x5+x56-y5_56 <=1 
C189: x5+x57-y5_57 <=1 
C190: x5+x58 <=1 
C191: x5+x59-y5_59 <=1 
C192: x6+x12 <=1 
C193: x6+x14 <=1 
C194: x6+x16 <=1 
C195: x6+x18 <=1 
C196: x6+x19-y6_19 <=1 
C197: x6+x21-y6_21 <=1 
C198: x6+x23 <=1 
C199: x6+x24-y6_24 <=1 
C200: x6+x25-y6_25 <=1 
C201: x6+x26 <=1 
C202: x6+x28-y6_28 <=1 
C203: x6+x31-y6_31 <=1 
C204: x6+x32 <=1 
C205: x6+x33 <=1 
C206: x6+x35-y6_35 <=1 
C207: x6+x37 <=1 
C208: x6+x39-y6_39 <=1 
C209: x6+x45 <=1 
C210: x6+x47 <=1 
C211: x6+x50 <=1 
C212: x6+x51 <=1 
C213: x6+x52 <=1 
C214: x6+x54 <=1 
C215: x6+x55-y6_55 <=1 
C216: x6+x56-y6_56 <=1 
C217: x6+x59-y6_59 <=1 
C218: x7+x8-y7_8 <=1 
C219: x7+x10-y7_10 <=1 
C220: x7+x11-y7_11 <=1 
C221: x7+x12 <=1 
C222: x7+x13-y7_13 <=1 
C223: x7+x14 <=1 
C224: x7+x15-y7_15 <=1 
C225: x7+x17 <=1 
C226: x7+x18-y7_18 <=1 
C227: x7+x19-y7_19 <=1 
C228: x7+x23 <=1 
C229: x7+x24-y7_24 <=1 
C230: x7+x26 <=1 
C231: x7+x27 <=1 
C232: x7+x28-y7_28 <=1 
C233: x7+x30 <=1 
C234: x7+x31 <=1 
C235: x7+x32-y7_32 <=1 
C236: x7+x33-y7_33 <=1 
C237: x7+x34 <=1 
C238: x7+x35-y7_35 <=1 
C239: x7+x36-y7_36 <=1 
C240: x7+x38-y7_38 <=1 
C241: x7+x39 <=1 
C242: x7+x41 <=1 
C243: x7+x42-y7_42 <=1 
C244: x7+x43-y7_43 <=1 
C245: x7+x45-y7_45 <=1 
C246: x7+x47 <=1 
C247: x7+x49-y7_49 <=1 
C248: x7+x50 <=1 
C249: x7+x52 <=1 
C250: x7+x55-y7_55 <=1 
C251: x7+x57-y7_57 <=1 
C252: x7+x59 <=1 
C253: x8+x9-y8_9 <=1 
C254: x8+x11 <=1 
C255: x8+x12-y8_12 <=1 
C256: x8+x13 <=1 
C257: x8+x14 <=1 
C258: x8+x15 <=1 
C259: x8+x16 <=1 
C260: x8+x17 <=1 
C261: x8+x18 <=1 
C262: x8+x20 <=1 
C263: x8+x21 <=1 
C264: x8+x22-y8_22 <=1 
C265: x8+x23 <=1 
C266: x8+x24 <=1 
C267: x8+x26 <=1 
C268: x8+x27-y8_27 <=1 
C269: x8+x28 <=1 
C270: x8+x30-y8_30 <=1 
C271: x8+x33-y8_33 <=1 
C272: x8+x34 <=1 
C273: x8+x35-y8_35 <=1 
C274: x8+x36-y8_36 <=1 
C275: x8+x37-y8_37 <=1 
C276: x8+x38 <=1 
C277: x8+x40-y8_40 <=1 
C278: x8+x41-y8_41 <=1 
C279: x8+x42-y8_42 <=1 
C280: x8+x46 <=1 
C281: x8+x47-y8_47 <=1 
C282: x8+x48-y8_48 <=1 
C283: x8+x49-y8_49 <=1 
C284: x8+x50 <=1 
C285: x8+x51 <=1 
C286: x8+x52-y8_52 <=1 
C287: x8+x55-y8_55 <=1 
C288: x8+x56 <=1 
C289: x8+x57-y8_57 <=1 
C290: x9+x10-y9_10 <=1 
C291: x9+x11 <=1 
C292: x9+x13-y9_13 <=1 
C293: x9+x14 <=1 
C294: x9+x16-y9_16 <=1 
C295: x9+x18 <=1 
C296: x9+x19-y9_19 <=1 
C297: x9+x20-y9_20 <=1 
C298: x9+x21-y9_21 <=1 
C299: x9+x22 <=1 
C300: x9+x23-y9_23 <=1 
C301: x9+x24-y9_24 <=1 
C302: x9+x25 <=1 
C303: x9+x27 <=1 
C304: x9+x28 <=1 
C305: x9+x30-y9_30 <=1 
C306: x9+x32 <=1 
C307: x9+x33 <=1 
C308: x9+x36-y9_36 <=1 
C309: x9+x42 <=1 
C310: x9+x43 <=1 
C311: x9+x45 <=1 
C312: x9+x47 <=1 
C313: x9+x49-y9_49 <=1 
C314: x9+x50-y9_50 <=1 
C315: x9+x55 <=1 
C316: x9+x58-y9_58 <=1 
C317: x10+x14 <=1 
C318: x10+x15 <=1 
C319: x10+x16-y10_16 <=1 
C320: x10+x18 <=1 
C321: x10+x19 <=1 
C322: x10+x20-y10_20 <=1 
C323: x10+x21-y10_21 <=1 
C324: x10+x23 <=1 
C325: x10+x28 <=1 
C326: x10+x30 <=1 
C327: x10+x31 <=1 
C328: x10+x32-y10_32 <=1 
C329: x10+x35-y10_35 <=1 
C330: x10+x39-y10_39 <=1 
C331: x10+x41 <=1 
C332: x10+x44 <=1 
C333: x10+x45 <=1 
C334: x10+x46 <=1 
C335: x10+x48-y10_48 <=1 
C336: x10+x49-y10_49 <=1 
C337: x10+x50 <=1 
C338: x10+x51 <=1 
C339: x10+x53-y10_53 <=1 
C340: x10+x54-y10_54 <=1 
C341: x10+x55-y10_55 <=1 
C342: x10+x56-y10_56 <=1 
C343: x10+x57-y10_57 <=1 
C344: x10+x58-y10_58 <=1 
C345: x11+x13-y11_13 <=1 
C346: x11+x15 <=1 
C347: x11+x16-y11_16 <=1 
C348: x11+x19-y11_19 <=1 
C349: x11+x20-y11_20 <=1 
C350: x11+x21-y11_21 <=1 
C351: x11+x22 <=1 
C352: x11+x23-y11_23 <=1 
C353: x11+x25 <=1 
C354: x11+x26-y11_26 <=1 
C355: x11+x27 <=1 
C356: x11+x28 <=1 
C357: x11+x30-y11_30 <=1 
C358: x11+x31 <=1 
C359: x11+x32 <=1 
C360: x11+x33 <=1 
C361: x11+x36-y11_36 <=1 
C362: x11+x37 <=1 
C363: x11+x41-y11_41 <=1 
C364: x11+x45-y11_45 <=1 
C365: x11+x48 <=1 
C366: x11+x49 <=1 
C367: x11+x50-y11_50 <=1 
C368: x11+x53 <=1 
C369: x11+x54 <=1 
C370: x11+x55-y11_55 <=1 
C371: x11+x57 <=1 
C372: x11+x58 <=1 
C373: x12+x13 <=1 
C374: x12+x16-y12_16 <=1 
C375: x12+x17 <=1 
C376: x12+x21 <=1 
C377: x12+x22-y12_22 <=1 
C378: x12+x23-y12_23 <=1 
C379: x12+x24-y12_24 <=1 
C380: x12+x25 <=1 
C381: x12+x28-y12_28 <=1 
C382: x12+x29-y12_29 <=1 
C383: x12+x30 <=1 
C384: x12+x32 <=1 
C385: x12+x33-y12_33 <=1 
C386: x12+x34-y12_34 <=1 
C387: x12+x36 <=1 
C388: x12+x37-y12_37 <=1 
C389: x12+x38 <=1 
C390: x12+x39 <=1 
C391: x12+x40 <=1 
C392: x12+x45 <=1 
C393: x12+x46 <=1 
C394: x12+x47-y12_47 <=1 
C395: x12+x49-y12_49 <=1 
C396: x12+x50 <=1 
C397: x12+x51-y12_51 <=1 
C398: x12+x52-y12_52 <=1 
C399: x12+x53 <=1 
C400: x12+x54-y12_54 <=1 
C401: x12+x55-y12_55 <=1 
C402: x12+x56 <=1 
C403: x12+x57 <=1 
C404: x12+x58-y12_58 <=1 
C405: x12+x59-y12_59 <=1 
C406: x13+x14 <=1 
C407: x13+x16 <=1 
C408: x13+x17 <=1 
C409: x13+x18 <=1 
C410: x13+x20 <=1 
C411: x13+x24 <=1 
C412: x13+x25 <=1 
C413: x13+x26 <=1 
C414: x13+x27-y13_27 <=1 
C415: x13+x28 <=1 
C416: x13+x31-y13_31 <=1 
C417: x13+x32 <=1 
C418: x13+x34 <=1 
C419: x13+x35-y13_35 <=1 
C420: x13+x36 <=1 
C421: x13+x37 <=1 
C422: x13+x38-y13_38 <=1 
C423: x13+x40 <=1 
C424: x13+x42-y13_42 <=1 
C425: x13+x44-y13_44 <=1 
C426: x13+x45 <=1 
C427: x13+x46 <=1 
C428: x13+x47 <=1 
C429: x13+x48-y13_48 <=1 
C430: x13+x49 <=1 
C431: x13+x51-y13_51 <=1 
C432: x13+x52-y13_52 <=1 
C433: x13+x54-y13_54 <=1 
C434: x13+x55 <=1 
C435: x13+x56 <=1 
C436: x13+x57 <=1 
C437: x13+x59 <=1 
C438: x14+x15-y14_15 <=1 
C439: x14+x16-y14_16 <=1 
C440: x14+x17 <=1 
C441: x14+x19-y14_19 <=1 
C442: x14+x20 <=1 
C443: x14+x21 <=1 
C444: x14+x23 <=1 
C445: x14+x24 <=1 
C446: x14+x25 <=1 
C447: x14+x26 <=1 
C448: x14+x27-y14_27 <=1 
C449: x14+x28 <=1 
C450: x14+x29 <=1 
C451: x14+x30-y14_30 <=1 
C452: x14+x35 <=1 
C453: x14+x36-y14_36 <=1 
C454: x14+x38 <=1 
C455: x14+x41-y14_41 <=1 
C456: x14+x43-y14_43 <=1 
C457: x14+x44-y14_44 <=1 
C458: x14+x46 <=1 
C459: x14+x47 <=1 
C460: x14+x48-y14_48 <=1 
C461: x14+x49-y14_49 <=1 
C462: x14+x50-y14_50 <=1 
C463: x14+x51-y14_51 <=1 
C464: x14+x52-y14_52 <=1 
C465: x14+x54 <=1 
C466: x14+x56 <=1 
C467: x14+x57-y14_57 <=1 
C468: x14+x58-y14_58 <=1 
C469: x14+x59 <=1 
C470: x15+x23 <=1 
C471: x15+x24 <=1 
C472: x15+x25-y15_25 <=1 
C473: x15+x26 <=1 
C474: x15+x27-y15_27 <=1 
C475: x15+x29-y15_29 <=1 
C476: x15+x30 <=1 
C477: x15+x34 <=1 
C478: x15+x35 <=1 
C479: x15+x36-y15_36 <=1 
C480: x15+x37-y15_37 <=1 
C481: x15+x38 <=1 
C482: x15+x42 <=1 
C483: x15+x43-y15_43 <=1 
C484: x15+x47-y15_47 <=1 
C485: x15+x48-y15_48 <=1 
C486: x15+x52 <=1 
C487: x15+x53-y15_53 <=1 
C488: x15+x55 <=1 
C489: x15+x56-y15_56 <=1 
C490: x15+x59 <=1 
C491: x16+x19-y16_19 <=1 
C492: x16+x20-y16_20 <=1 
C493: x16+x21 <=1 
C494: x16+x22 <=1 
C495: x16+x23 <=1 
C496: x16+x24-y16_24 <=1 
C497: x16+x26-y16_26 <=1 
C498: x16+x29-y16_29 <=1 
C499: x16+x30-y16_30 <=1 
C500: x16+x31-y16_31 <=1 
C501: x16+x32-y16_32 <=1 
C502: x16+x33 <=1 
C503: x16+x35-y16_35 <=1 
C504: x16+x37-y16_37 <=1 
C505: x16+x39-y16_39 <=1 
C506: x16+x40-y16_40 <=1 
C507: x16+x41-y16_41 <=1 
C508: x16+x42 <=1 
C509: x16+x43 <=1 
C510: x16+x45-y16_45 <=1 
C511: x16+x46-y16_46 <=1 
C512: x16+x47 <=1 
C513: x16+x48 <=1 
C514: x16+x49-y16_49 <=1 
C515: x16+x51-y16_51 <=1 
C516: x16+x52-y16_52 <=1 
C517: x16+x56 <=1 
C518: x16+x57 <=1 
C519: x16+x58-y16_58 <=1 
C520: x16+x59 <=1 
C521: x17+x19 <=1 
C522: x17+x21 <=1 
C523: x17+x22 <=1 
C524: x17+x23 <=1 
C525: x17+x24 <=1 
C526: x17+x25-y17_25 <=1 
C527: x17+x26-y17_26 <=1 
C528: x17+x27-y17_27 <=1 
C529: x17+x29 <=1 
C530: x17+x31 <=1 
C531: x17+x33-y17_33 <=1 
C532: x17+x36 <=1 
C533: x17+x37 <=1 
C534: x17+x42 <=1 
C535: x17+x43-y17_43 <=1 
C536: x17+x47-y17_47 <=1 
C537: x17+x48 <=1 
C538: x17+x49-y17_49 <=1 
C539: x17+x52-y17_52 <=1 
C540: x17+x54-y17_54 <=1 
C541: x17+x57-y17_57 <=1 
C542: x17+x58-y17_58 <=1 
C543: x18+x19 <=1 
C544: x18+x20-y18_20 <=1 
C545: x18+x22 <=1 
C546: x18+x23-y18_23 <=1 
C547: x18+x24-y18_24 <=1 
C548: x18+x25 <=1 
C549: x18+x26 <=1 
C550: x18+x27 <=1 
C551: x18+x28 <=1 
C552: x18+x31-y18_31 <=1 
C553: x18+x35 <=1 
C554: x18+x38 <=1 
C555: x18+x39 <=1 
C556: x18+x40-y18_40 <=1 
C557: x18+x43-y18_43 <=1 
C558: x18+x44 <=1 
C559: x18+x45 <=1 
C560: x18+x46-y18_46 <=1 
C561: x18+x47-y18_47 <=1 
C562: x18+x48-y18_48 <=1 
C563: x18+x49-y18_49 <=1 
C564: x18+x50 <=1 
C565: x18+x53-y18_53 <=1 
C566: x18+x55 <=1 
C567: x18+x56-y18_56 <=1 
C568: x18+x57-y18_57 <=1 
C569: x18+x58-y18_58 <=1 
C570: x18+x59 <=1 
C571: x19+x20 <=1 
C572: x19+x21-y19_21 <=1 
C573: x19+x23-y19_23 <=1 
C574: x19+x24 <=1 
C575: x19+x25-y19_25 <=1 
C576: x19+x28 <=1 
C577: x19+x29 <=1 
C578: x19+x31-y19_31 <=1 
C579: x19+x32 <=1 
C580: x19+x33-y19_33 <=1 
C581: x19+x35 <=1 
C582: x19+x36 <=1 
C583: x19+x38-y19_38 <=1 
C584: x19+x39 <=1 
C585: x19+x40 <=1 
C586: x19+x43 <=1 
C587: x19+x45 <=1 
C588: x19+x48 <=1 
C589: x19+x53-y19_53 <=1 
C590: x19+x54 <=1 
C591: x19+x55 <=1 
C592: x19+x56-y19_56 <=1 
C593: x19+x59 <=1 
C594: x20+x23 <=1 
C595: x20+x25 <=1 
C596: x20+x26-y20_26 <=1 
C597: x20+x29 <=1 
C598: x20+x30 <=1 
C599: x20+x32-y20_32 <=1 
C600: x20+x33 <=1 
C601: x20+x34-y20_34 <=1 
C602: x20+x37-y20_37 <=1 
C603: x20+x38-y20_38 <=1 
C604: x20+x39 <=1 
C605: x20+x40-y20_40 <=1 
C606: x20+x41-y20_41 <=1 
C607: x20+x42-y20_42 <=1 
C608: x20+x43 <=1 
C609: x20+x44 <=1 
C610: x20+x45 <=1 
C611: x20+x46 <=1 
C612: x20+x47 <=1 
C613: x20+x48 <=1 
C614: x20+x49-y20_49 <=1 
C615: x20+x50 <=1 
C616: x20+x52-y20_52 <=1 
C617: x20+x53 <=1 
C618: x20+x56 <=1 
C619: x20+x57-y20_57 <=1 
C620: x20+x58 <=1 
C621: x21+x23 <=1 
C622: x21+x24-y21_24 <=1 
C623: x21+x25 <=1 
C624: x21+x27-y21_27 <=1 
C625: x21+x28-y21_28 <=1 
C626: x21+x29-y21_29 <=1 
C627: x21+x31-y21_31 <=1 
C628: x21+x32-y21_32 <=1 
C629: x21+x33-y21_33 <=1 
C630: x21+x34 <=1 
C631: x21+x37 <=1 
C632: x21+x38-y21_38 <=1 
C633: x21+x39-y21_39 <=1 
C634: x21+x41-y21_41 <=1 
C635: x21+x42-y21_42 <=1 
C636: x21+x45-y21_45 <=1 
C637: x21+x47 <=1 
C638: x21+x48 <=1 
C639: x21+x50 <=1 
C640: x21+x51-y21_51 <=1 
C641: x21+x55 <=1 
C642: x21+x59 <=1 
C643: x22+x23-y22_23 <=1 
C644: x22+x26-y22_26 <=1 
C645: x22+x27-y22_27 <=1 
C646: x22+x28 <=1 
C647: x22+x29-y22_29 <=1 
C648: x22+x30-y22_30 <=1 
C649: x22+x32-y22_32 <=1 
C650: x22+x33 <=1 
C651: x22+x34-y22_34 <=1 
C652: x22+x37 <=1 
C653: x22+x38 <=1 
C654: x22+x42 <=1 
C655: x22+x43-y22_43 <=1 
C656: x22+x46 <=1 
C657: x22+x47 <=1 
C658: x22+x48 <=1 
C659: x22+x49-y22_49 <=1 
C660: x22+x51 <=1 
C661: x22+x53-y22_53 <=1 
C662: x22+x54 <=1 
C663: x22+x55 <=1 
C664: x22+x57-y22_57 <=1 
C665: x22+x58-y22_58 <=1 
C666: x22+x59 <=1 
C667: x23+x26-y23_26 <=1 
C668: x23+x29 <=1 
C669: x23+x31-y23_31 <=1 
C670: x23+x32 <=1 
C671: x23+x34 <=1 
C672: x23+x35-y23_35 <=1 
C673: x23+x36 <=1 
C674: x23+x37-y23_37 <=1 
C675: x23+x38 <=1 
C676: x23+x40 <=1 
C677: x23+x41-y23_41 <=1 
C678: x23+x42-y23_42 <=1 
C679: x23+x43-y23_43 <=1 
C680: x23+x44 <=1 
C681: x23+x45-y23_45 <=1 
C682: x23+x46 <=1 
C683: x23+x47 <=1 
C684: x23+x49-y23_49 <=1 
C685: x23+x50 <=1 
C686: x23+x51 <=1 
C687: x23+x52-y23_52 <=1 
C688: x23+x53 <=1 
C689: x23+x55-y23_55 <=1 
C690: x23+x59-y23_59 <=1 
C691: x24+x25-y24_25 <=1 
C692: x24+x26 <=1 
C693: x24+x27-y24_27 <=1 
C694: x24+x29-y24_29 <=1 
C695: x24+x30-y24_30 <=1 
C696: x24+x31-y24_31 <=1 
C697: x24+x33-y24_33 <=1 
C698: x24+x38 <=1 
C699: x24+x39 <=1 
C700: x24+x40-y24_40 <=1 
C701: x24+x41-y24_41 <=1 
C702: x24+x43-y24_43 <=1 
C703: x24+x45-y24_45 <=1 
C704: x24+x46-y24_46 <=1 
C705: x24+x47 <=1 
C706: x24+x48-y24_48 <=1 
C707: x24+x49 <=1 
C708: x24+x52 <=1 
C709: x24+x53 <=1 
C710: x24+x57-y24_57 <=1 
C711: x24+x58-y24_58 <=1 
C712: x25+x26-y25_26 <=1 
C713: x25+x30 <=1 
C714: x25+x33 <=1 
C715: x25+x34-y25_34 <=1 
C716: x25+x38-y25_38 <=1 
C717: x25+x39 <=1 
C718: x25+x43-y25_43 <=1 
C719: x25+x45 <=1 
C720: x25+x46 <=1 
C721: x25+x47-y25_47 <=1 
C722: x25+x48-y25_48 <=1 
C723: x25+x51 <=1 
C724: x25+x52 <=1 
C725: x25+x53 <=1 
C726: x25+x54-y25_54 <=1 
C727: x25+x57 <=1 
C728: x25+x59 <=1 
C729: x26+x27 <=1 
C730: x26+x28-y26_28 <=1 
C731: x26+x32-y26_32 <=1 
C732: x26+x33-y26_33 <=1 
C733: x26+x35 <=1 
C734: x26+x36-y26_36 <=1 
C735: x26+x38 <=1 
C736: x26+x41 <=1 
C737: x26+x42-y26_42 <=1 
C738: x26+x43 <=1 
C739: x26+x44-y26_44 <=1 
C740: x26+x47 <=1 
C741: x26+x48 <=1 
C742: x26+x50 <=1 
C743: x26+x52 <=1 
C744: x26+x54-y26_54 <=1 
C745: x26+x55-y26_55 <=1 
C746: x26+x56-y26_56 <=1 
C747: x26+x57 <=1 
C748: x26+x58-y26_58 <=1 
C749: x27+x28 <=1 
C750: x27+x29 <=1 
C751: x27+x30 <=1 
C752: x27+x31 <=1 
C753: x27+x32-y27_32 <=1 
C754: x27+x33 <=1 
C755: x27+x36-y27_36 <=1 
C756: x27+x37 <=1 
C757: x27+x38-y27_38 <=1 
C758: x27+x40 <=1 
C759: x27+x42 <=1 
C760: x27+x44-y27_44 <=1 
C761: x27+x45-y27_45 <=1 
C762: x27+x46 <=1 
C763: x27+x47 <=1 
C764: x27+x48 <=1 
C765: x27+x50-y27_50 <=1 
C766: x27+x53-y27_53 <=1 
C767: x27+x54 <=1 
C768: x27+x55 <=1 
C769: x27+x58 <=1 
C770: x28+x32-y28_32 <=1 
C771: x28+x33 <=1 
C772: x28+x34-y28_34 <=1 
C773: x28+x36 <=1 
C774: x28+x37 <=1 
C775: x28+x38 <=1 
C776: x28+x39-y28_39 <=1 
C777: x28+x40 <=1 
C778: x28+x41 <=1 
C779: x28+x43 <=1 
C780: x28+x45-y28_45 <=1 
C781: x28+x47-y28_47 <=1 
C782: x28+x50-y28_50 <=1 
C783: x28+x51 <=1 
C784: x28+x53-y28_53 <=1 
C785: x28+x54 <=1 
C786: x28+x56-y28_56 <=1 
C787: x28+x57 <=1 
C788: x28+x58-y28_58 <=1 
C789: x28+x59 <=1 
C790: x29+x32-y29_32 <=1 
C791: x29+x33-y29_33 <=1 
C792: x29+x38-y29_38 <=1 
C793: x29+x39-y29_39 <=1 
C794: x29+x41 <=1 
C795: x29+x42 <=1 
C796: x29+x43-y29_43 <=1 
C797: x29+x44-y29_44 <=1 
C798: x29+x48-y29_48 <=1 
C799: x29+x49 <=1 
C800: x29+x50 <=1 
C801: x29+x51-y29_51 <=1 
C802: x29+x53 <=1 
C803: x29+x56-y29_56 <=1 
C804: x29+x57 <=1 
C805: x29+x59-y29_59 <=1 
C806: x30+x31-y30_31 <=1 
C807: x30+x32 <=1 
C808: x30+x33 <=1 
C809: x30+x38 <=1 
C810: x30+x39-y30_39 <=1 
C811: x30+x40-y30_40 <=1 
C812: x30+x42 <=1 
C813: x30+x43 <=1 
C814: x30+x44-y30_44 <=1 
C815: x30+x47-y30_47 <=1 
C816: x30+x49-y30_49 <=1 
C817: x30+x52 <=1 
C818: x30+x59 <=1 
C819: x31+x35 <=1 
C820: x31+x36 <=1 
C821: x31+x38-y31_38 <=1 
C822: x31+x42-y31_42 <=1 
C823: x31+x45 <=1 
C824: x31+x46 <=1 
C825: x31+x47-y31_47 <=1 
C826: x31+x49-y31_49 <=1 
C827: x31+x50-y31_50 <=1 
C828: x31+x51 <=1 
C829: x31+x53 <=1 
C830: x31+x54-y31_54 <=1 
C831: x31+x56-y31_56 <=1 
C832: x31+x57-y31_57 <=1 
C833: x31+x58 <=1 
C834: x32+x33-y32_33 <=1 
C835: x32+x34 <=1 
C836: x32+x36 <=1 
C837: x32+x39-y32_39 <=1 
C838: x32+x42 <=1 
C839: x32+x43 <=1 
C840: x32+x45-y32_45 <=1 
C841: x32+x47-y32_47 <=1 
C842: x32+x50-y32_50 <=1 
C843: x32+x52-y32_52 <=1 
C844: x32+x54 <=1 
C845: x32+x56 <=1 
C846: x33+x34-y33_34 <=1 
C847: x33+x35-y33_35 <=1 
C848: x33+x36 <=1 
C849: x33+x39-y33_39 <=1 
C850: x33+x40-y33_40 <=1 
C851: x33+x41 <=1 
C852: x33+x42-y33_42 <=1 
C853: x33+x43-y33_43 <=1 
C854: x33+x44 <=1 
C855: x33+x47-y33_47 <=1 
C856: x33+x48-y33_48 <=1 
C857: x33+x49-y33_49 <=1 
C858: x33+x51 <=1 
C859: x33+x52 <=1 
C860: x33+x53 <=1 
C861: x33+x54 <=1 
C862: x33+x57-y33_57 <=1 
C863: x33+x58 <=1 
C864: x33+x59-y33_59 <=1 
C865: x34+x35-y34_35 <=1 
C866: x34+x38 <=1 
C867: x34+x39 <=1 
C868: x34+x42-y34_42 <=1 
C869: x34+x43 <=1 
C870: x34+x44-y34_44 <=1 
C871: x34+x46-y34_46 <=1 
C872: x34+x47 <=1 
C873: x34+x48-y34_48 <=1 
C874: x34+x50 <=1 
C875: x34+x51-y34_51 <=1 
C876: x34+x54-y34_54 <=1 
C877: x34+x55 <=1 
C878: x34+x56-y34_56 <=1 
C879: x34+x57 <=1 
C880: x34+x58 <=1 
C881: x35+x36-y35_36 <=1 
C882: x35+x37-y35_37 <=1 
C883: x35+x38 <=1 
C884: x35+x39 <=1 
C885: x35+x40-y35_40 <=1 
C886: x35+x42 <=1 
C887: x35+x43 <=1 
C888: x35+x44 <=1 
C889: x35+x45-y35_45 <=1 
C890: x35+x46-y35_46 <=1 
C891: x35+x48-y35_48 <=1 
C892: x35+x49 <=1 
C893: x35+x54-y35_54 <=1 
C894: x35+x56-y35_56 <=1 
C895: x35+x57 <=1 
C896: x35+x58 <=1 
C897: x35+x59-y35_59 <=1 
C898: x36+x40 <=1 
C899: x36+x41-y36_41 <=1 
C900: x36+x42 <=1 
C901: x36+x46-y36_46 <=1 
C902: x36+x47 <=1 
C903: x36+x48-y36_48 <=1 
C904: x36+x49 <=1 
C905: x36+x51 <=1 
C906: x36+x54-y36_54 <=1 
C907: x36+x57-y36_57 <=1 
C908: x36+x59 <=1 
C909: x37+x38 <=1 
C910: x37+x40-y37_40 <=1 
C911: x37+x41-y37_41 <=1 
C912: x37+x42-y37_42 <=1 
C913: x37+x43-y37_43 <=1 
C914: x37+x44-y37_44 <=1 
C915: x37+x45 <=1 
C916: x37+x46 <=1 
C917: x37+x47-y37_47 <=1 
C918: x37+x49 <=1 
C919: x37+x50 <=1 
C920: x37+x52 <=1 
C921: x37+x53 <=1 
C922: x37+x55-y37_55 <=1 
C923: x37+x56-y37_56 <=1 
C924: x38+x39 <=1 
C925: x38+x40 <=1 
C926: x38+x42-y38_42 <=1 
C927: x38+x44-y38_44 <=1 
C928: x38+x46-y38_46 <=1 
C929: x38+x47 <=1 
C930: x38+x51 <=1 
C931: x38+x52-y38_52 <=1 
C932: x38+x53-y38_53 <=1 
C933: x38+x54 <=1 
C934: x38+x56 <=1 
C935: x38+x58 <=1 
C936: x38+x59 <=1 
C937: x39+x48-y39_48 <=1 
C938: x39+x49-y39_49 <=1 
C939: x39+x50-y39_50 <=1 
C940: x39+x51 <=1 
C941: x39+x52-y39_52 <=1 
C942: x39+x53-y39_53 <=1 
C943: x39+x54 <=1 
C944: x39+x57-y39_57 <=1 
C945: x39+x58-y39_58 <=1 
C946: x40+x41-y40_41 <=1 
C947: x40+x42-y40_42 <=1 
C948: x40+x44-y40_44 <=1 
C949: x40+x45 <=1 
C950: x40+x46 <=1 
C951: x40+x48 <=1 
C952: x40+x50 <=1 
C953: x40+x51 <=1 
C954: x40+x52-y40_52 <=1 
C955: x40+x53-y40_53 <=1 
C956: x40+x56-y40_56 <=1 
C957: x40+x58 <=1 
C958: x41+x43-y41_43 <=1 
C959: x41+x44-y41_44 <=1 
C960: x41+x46-y41_46 <=1 
C961: x41+x48-y41_48 <=1 
C962: x41+x52-y41_52 <=1 
C963: x41+x55-y41_55 <=1 
C964: x41+x57 <=1 
C965: x42+x43-y42_43 <=1 
C966: x42+x44-y42_44 <=1 
C967: x42+x45 <=1 
C968: x42+x48 <=1 
C969: x42+x49 <=1 
C970: x42+x50-y42_50 <=1 
C971: x42+x51 <=1 
C972: x42+x56-y42_56 <=1 
C973: x42+x57 <=1 
C974: x43+x45-y43_45 <=1 
C975: x43+x49 <=1 
C976: x43+x50-y43_50 <=1 
C977: x43+x51 <=1 
C978: x43+x54-y43_54 <=1 
C979: x43+x55 <=1 
C980: x43+x59-y43_59 <=1 
C981: x44+x45-y44_45 <=1 
C982: x44+x47 <=1 
C983: x44+x48 <=1 
C984: x44+x51-y44_51 <=1 
C985: x44+x52-y44_52 <=1 
C986: x44+x53 <=1 
C987: x44+x55-y44_55 <=1 
C988: x44+x59-y44_59 <=1 
C989: x45+x46 <=1 
C990: x45+x47-y45_47 <=1 
C991: x45+x48-y45_48 <=1 
C992: x45+x49-y45_49 <=1 
C993: x45+x50-y45_50 <=1 
C994: x45+x53-y45_53 <=1 
C995: x45+x54-y45_54 <=1 
C996: x45+x55 <=1 
C997: x46+x47 <=1 
C998: x46+x49-y46_49 <=1 
C999: x46+x51 <=1 
C1000: x46+x52-y46_52 <=1 
C1001: x46+x53-y46_53 <=1 
C1002: x46+x54 <=1 
C1003: x46+x55 <=1 
C1004: x46+x56 <=1 
C1005: x46+x57-y46_57 <=1 
C1006: x46+x58 <=1 
C1007: x46+x59-y46_59 <=1 
C1008: x47+x48-y47_48 <=1 
C1009: x47+x50 <=1 
C1010: x47+x51-y47_51 <=1 
C1011: x47+x52-y47_52 <=1 
C1012: x47+x54 <=1 
C1013: x47+x55-y47_55 <=1 
C1014: x47+x57-y47_57 <=1 
C1015: x47+x58 <=1 
C1016: x47+x59-y47_59 <=1 
C1017: x48+x51 <=1 
C1018: x48+x53 <=1 
C1019: x48+x54-y48_54 <=1 
C1020: x48+x56 <=1 
C1021: x48+x57 <=1 
C1022: x48+x58-y48_58 <=1 
C1023: x48+x59 <=1 
C1024: x49+x52-y49_52 <=1 
C1025: x49+x53 <=1 
C1026: x49+x55-y49_55 <=1 
C1027: x49+x56 <=1 
C1028: x49+x58 <=1 
C1029: x49+x59 <=1 
C1030: x50+x53 <=1 
C1031: x50+x55-y50_55 <=1 
C1032: x50+x56 <=1 
C1033: x50+x57-y50_57 <=1 
C1034: x50+x59-y50_59 <=1 
C1035: x51+x55-y51_55 <=1 
C1036: x51+x56 <=1 
C1037: x51+x57-y51_57 <=1 
C1038: x51+x58 <=1 
C1039: x52+x53 <=1 
C1040: x52+x54-y52_54 <=1 
C1041: x52+x56-y52_56 <=1 
C1042: x52+x58 <=1 
C1043: x52+x59 <=1 
C1044: x53+x56-y53_56 <=1 
C1045: x53+x57-y53_57 <=1 
C1046: x53+x59 <=1 
C1047: x54+x55-y54_55 <=1 
C1048: x54+x58-y54_58 <=1 
C1049: x55+x56-y55_56 <=1 
C1050: x55+x58 <=1 
C1051: x55+x59 <=1 
C1052: x56+x57-y56_57 <=1 
C1053: x56+x58-y56_58 <=1 
C1054: x56+x59-y56_59 <=1 
C1055: x57+x59-y57_59 <=1 
C1056: x58+x59-y58_59 <=1 

binary
x0
x1
x2
x3
x4
x5
x6
x7
x8
x9
x10
x11
x12
x13
x14
x15
x16
x17
x18
x19
x20
x21
x22
x23
x24
x25
x26
x27
x28
x29
x30
x31
x32
x33
x34
x35
x36
x37
x38
x39
x40
x41
x42
x43
x44
x45
x46
x47
x48
x49
x50
x51
x52
x53
x54
x55
x56
x57
x58
x59
