problem_generation/data/GISP/train/er_n=60_m=1056_p=0.60_SET2_setparam=100.00_alpha=0.50_906.sol
objective value:                                 1179
x1                                                  1 	(obj:100)
x9                                                  1 	(obj:100)
x26                                                 1 	(obj:100)
x29                                                 1 	(obj:100)
x30                                                 1 	(obj:100)
x31                                                 1 	(obj:100)
x34                                                 1 	(obj:100)
x37                                                 1 	(obj:100)
x40                                                 1 	(obj:100)
x44                                                 1 	(obj:100)
x54                                                 1 	(obj:100)
x56                                                 1 	(obj:100)
y9_30                                               1 	(obj:-1)
y29_44                                              1 	(obj:-1)
y40_44                                              1 	(obj:-1)
y31_56                                              1 	(obj:-1)
y1_37                                               1 	(obj:-1)
y37_44                                              1 	(obj:-1)
y30_31                                              1 	(obj:-1)
y30_40                                              1 	(obj:-1)
y1_9                                                1 	(obj:-1)
y26_56                                              1 	(obj:-1)
y30_44                                              1 	(obj:-1)
y34_56                                              1 	(obj:-1)
y37_56                                              1 	(obj:-1)
y29_56                                              1 	(obj:-1)
y40_56                                              1 	(obj:-1)
y31_54                                              1 	(obj:-1)
y26_54                                              1 	(obj:-1)
y34_54                                              1 	(obj:-1)
y26_44                                              1 	(obj:-1)
y34_44                                              1 	(obj:-1)
y37_40                                              1 	(obj:-1)
